(set-logic ALL)
(set-option :produce-models true)
(declare-sort BoundSet 0)
(declare-sort UnboundSet 0)
(set-option :finite-model-find true)
(declare-fun IsNotAt (BoundSet BoundSet) Bool)
(declare-fun IsOn (BoundSet BoundSet) Bool)
(assert (not (=> (exists ((a BoundSet)) (exists ((b BoundSet)) (IsNotAt a b))) (exists ((a BoundSet)) (exists ((d BoundSet)) (IsOn a d))))))
(check-sat)
(get-model)